
  22   10
  10   10   10   10   10   10   10   10   10   10

   0   0   0   0   0   0   0   0   0   0   0  13 2 3 4 5 6 7 15 16 17 18 19 20 21 
   8   0   0   0  10   0   0   0   0   0   0   4 14 12 11 10 
   5   0   0   0   0   0   0   0   0   0  10   3 13 12 9 
   7  10   0   0   0   0   0   0   0   0   0   2 11 8 
   5   0   0   0   0   0   0  10   0   0   0   1 10 
   4   0   0   0   0   0  10   0   0   0   0   1 9 
   4   0   0   0   0   0   0   0  10   0   0   1 8 
   3   0   0   0   0   0   0   0   0   0  10   1 22
   7   0   0   0   0   0   0  10   0   0   0   1 22
   1   0   0   0   0   0   0   0   0   0  10   1 22
   8  10   0   0   0   0   0   0   0   0   0   1 22
  10   0   0   0   0  10   0   0   0   0   0   1 22
   8   0   0  10   0   0   0   0   0   0   0   1 22
   8   0   0   0  10   0   0   0   0   0   0   1 22
   2   0   0   0  10   0   0   0   0   0   0   1 22
   4  10   0   0   0   0   0   0   0   0   0   1 22
   3   0   0   0   0  10   0   0   0   0   0   1 22
   6   0   0  10   0   0   0   0   0   0   0   1 22
   7   0   0   0   0   0   0   0   0   0  10   1 22
   9  10   0   0   0   0   0   0   0   0   0   1 22
   8   0   0   0   0   0   0   0  10   0   0   1 22
   0   0   0   0   0   0   0   0   0   0   0   0 
